<?xml version="1.0"?>
<VTKFile type="UnstructuredGrid" version="1.0" byte_order="LittleEndian" header_type="UInt64">
  <UnstructuredGrid>
    <FieldData>
      <DataArray type="Int8" Name="IntegrationPointMetaData" NumberOfTuples="97" format="ascii" RangeMin="34" RangeMax="125">
        123 34 105 110 116 101
        103 114 97 116 105 111
        110 95 112 111 105 110
        116 95 97 114 114 97
        121 115 34 58 91 123
        34 105 110 116 101 103
        114 97 116 105 111 110
        95 111 114 100 101 114
        34 58 51 44 34 110
        97 109 101 34 58 34
        115 105 103 109 97 95
        105 112 34 44 34 110
        117 109 98 101 114 95
        111 102 95 99 111 109
        112 111 110 101 110 116
        115 34 58 54 125 93
        125
      </DataArray>
      <DataArray type="Int8" Name="OGS_VERSION" NumberOfTuples="21" format="ascii" RangeMin="45" RangeMax="103">
        54 46 52 46 51 45
        49 55 49 45 103 49
        55 52 102 51 99 101
        53 57 51
      </DataArray>
      <DataArray type="Float64" Name="sigma_ip" NumberOfComponents="6" NumberOfTuples="75" format="ascii" RangeMin="470509.50423059" RangeMax="8538797.18559101">
        1542874.9011147094 1329513.5053334846 8266684.120921589 651860.3379604833 -0.00003758362824171786 -0.000011797466206645216
        1542874.9011147094 1329513.5053334846 8266684.120921589 651860.3379604833 -0.00003758362824171786 -0.000011797466206645216
        1542874.9011147094 1329513.5053334846 8266684.120921589 651860.3379604833 -0.00003758362824171786 -0.000011797466206645216
        1542874.9011147094 1329513.5053334846 8266684.120921589 651860.3379604833 -0.00003758362824171786 -0.000011797466206645216
        1542874.9011147094 1329513.5053334846 8266684.120921589 651860.3379604833 -0.00003758362824171786 -0.000011797466206645216
        1542874.9011147094 1329513.5053334846 8266684.120921589 651860.3379604833 -0.00003758362824171786 -0.000011797466206645216
        1542874.9011147094 1329513.5053334846 8266684.120921589 651860.3379604833 -0.00003758362824171786 -0.000011797466206645216
        1542874.9011147094 1329513.5053334846 8266684.120921589 651860.3379604833 -0.00003758362824171786 -0.000011797466206645216
        1542874.9011147094 1329513.5053334846 8266684.120921589 651860.3379604833 -0.00003758362824171786 -0.000011797466206645216
        1542874.9011147094 1329513.5053334846 8266684.120921589 651860.3379604833 -0.00003758362824171786 -0.000011797466206645216
        1542874.9011147094 1329513.5053334846 8266684.120921589 651860.3379604833 -0.00003758362824171786 -0.000011797466206645216
        1542874.9011147094 1329513.5053334846 8266684.120921589 651860.3379604833 -0.00003758362824171786 -0.000011797466206645216
        1542874.9011147094 1329513.5053334846 8266684.120921589 651860.3379604833 -0.00003758362824171786 -0.000011797466206645216
        1542874.9011147094 1329513.5053334846 8266684.120921589 651860.3379604833 -0.00003758362824171786 -0.000011797466206645216
        1122232.4516877246 322642.2009667673 -91010.69860197493 94448.43019509413 292359.34376604884 -112750.366162975
        978484.9236943419 -191656.37399117654 -151702.2356175605 -272386.4032649304 -112658.8486311901 -298577.89214128215
        834737.3957009596 -705954.9489491201 -212393.77263314585 -639221.236724955 -517677.04102842894 -484405.4181195892
        553429.5909417976 102853.82655544474 -288158.50739128725 53222.476877218614 467705.26837399363 -71222.37067407656
        490553.2861783615 -168831.0787126605 -267978.82117692655 -153492.0063731197 189309.97623065923 -257049.8966523837
        427676.9814149253 -440515.9839807658 -247799.13496256582 -360206.489623458 -89085.31591267536 -442877.4226306908
        -15373.26980412866 -116934.54785587743 -485306.31618059933 11996.523559343255 643051.1929819386 -29694.375185178145
        2621.648662381251 -146005.78343414448 -384255.4067362926 -34597.60948130869 491278.8010925086 -215521.90116348525
        20616.567128891184 -175077.01901241156 -283204.49729198584 -81191.74252196064 339506.40920307836 -401349.42714179243
        197073.87591559478 131153.29211468739 68192.24176183518 -90827.09328718674 281039.06095504377 -329142.8502126568
        179949.24817611685 -256522.382589352 387369.40550796286 -457661.9267472114 -43107.908212249116 -354850.02598127746
        162824.62043663894 -644198.0572933912 706546.5692540905 -824496.7602072359 -367254.8773795418 -380557.2017498982
        108632.06579872765 71485.26791305142 31164.7831822094 -51181.82337511591 456384.9855629887 -160991.95446985395
        172378.6612891959 -73576.73710114944 431213.17015828326 -257896.30662545422 258860.91664960023 -186699.13023847467
        236125.25677966414 -218638.74211535038 831261.557134357 -464610.7898757925 61336.84773621186 -212406.30600709538
        20190.25568186046 11817.243711415596 -5862.675397416352 -11536.553463045268 631730.9101709337 7158.941272948849
        164808.07440227477 109368.90838705294 475056.93480860355 -58130.68650369721 560829.7415114497 -18548.234495671884
        309425.8931226891 206920.57306269027 955976.5450146236 -104724.81954434916 489928.57285196555 -44255.41026429258
        -728084.6998565345 -60335.61673739235 227395.1821256453 -276102.61676946736 269718.77814403875 -545535.3342623387
        -618586.427342108 -321388.3911875273 926441.0466334865 -642937.450229492 26443.03220669192 -411122.15982127306
        -509088.1548276816 -582441.1656376623 1625486.9111413267 -1009772.2836895166 -216832.71373065482 -276708.9853802075
        -336165.45934434247 40116.70927065804 350488.073755706 -155586.12362745043 445064.7027519836 -250761.5382656314
        -145795.96359996975 21677.60451036163 1130405.1614934932 -362300.6068777889 328411.8570685413 -116348.36382456569
        44573.532144402736 3238.499750064929 1910322.2492312798 -569015.090128127 211759.01138509886 18064.81061649988
        55753.781167849564 140569.03527870862 473580.96538576664 -35069.63048543374 620410.6273599286 44012.25773107579
        326994.50014216837 364743.60020825046 1334369.2763534999 -81663.76352608568 630380.6819303907 178425.43217214147
        598235.2191164868 588918.165137792 2195157.5873212325 -128257.89656673762 640350.7365008525 312838.6066132071
        -927484.1283914169 -1116799.3395404548 445591.67729353457 578394.5922776506 -983160.1195195388 826158.4353142538
        -1172878.0204230493 -1362193.2315720872 -290589.9988013624 578394.5922776506 -1289401.8899346252 717397.4191799832
        -679645.6812274563 -868960.892376494 1189107.0187854164 578394.5922776506 -1105058.760414265 1184239.0444743673
        -929928.6835237454 -1119243.894672783 438258.0118965492 578394.5922776506 -555019.708209726 576838.8422884109
        -511261.61505533237 -700576.8262043701 1694259.2173017883 578394.5922776506 -463731.05665505433 1010632.3972112244
        -1347852.9506382188 -1537168.1617872568 -815514.7894468713 578394.5922776506 -776402.9004811961 218803.41972027777
        -923337.8194806997 -1112653.0306297375 458030.604025686 578394.5922776506 -1709346.4014223686 1249039.489011261
        -355614.9355939524 -462295.63348456484 752184.902006873 325930.16898024164 -517721.83334707125 596899.495850619
        -601008.8276255847 -707689.5255161971 16003.225911976235 325930.16898024164 -823963.6037621574 488138.4797163484
        -107776.48842999176 -214457.18632060417 1495700.2434987552 325930.16898024164 -639620.4742417975 954980.1050107324
        -358059.49072628084 -464740.1886168933 744851.2366098878 325930.16898024164 -89581.4220372584 347579.902824776
        60607.577742132176 -46073.12014848026 2000852.4420151268 325930.16898024164 1707.2295174132319 781373.4577475896
        -775983.7578407543 -882664.4557313668 -508921.5647335327 325930.16898024164 -310964.6143087286 -10455.519743357047
        -351468.6266832353 -458149.3245738477 764623.8287390246 325930.16898024164 -1243908.115249901 1019780.5495476259
        216254.2572035122 192208.07257132506 1058778.1267202117 73465.74568283277 -52283.54717460366 367640.5563869841
        -29139.634828120084 -53185.81946030723 322596.45062531484 73465.74568283277 -358525.31758968986 258879.54025271352
        464092.70436747296 440046.5197352858 1802293.468212094 73465.74568283277 -174182.1880693299 725721.1655470975
        213809.70207118374 189763.5174389966 1051444.4613232263 73465.74568283277 375856.86413520924 118320.96336114117
        632476.7705395968 608430.5859074097 2307445.6667284654 73465.74568283277 467145.5156898808 552114.5182839548
        -204114.56504328974 -228160.7496754769 -202328.3400201941 73465.74568283277 154473.67186373897 -239714.45920699192
        220400.56611422935 196354.3814820422 1071217.0534523632 73465.74568283277 -778469.8290774334 790521.610083991
        -56663.7591770836 -693573.8128849717 1025261.0170793417 -3300815.683198893 -670151.5919023729 949065.3740417898
        748605.9141840909 924375.1669280292 2628390.730711039 -3378587.890658911 670151.591956976 718264.0200427071
        -350137.80103907036 -525445.146748793 1991249.723486043 -2094938.3497533675 535725.7415431525 1117194.0401779686
        -342728.1679484185 294643.79279368516 1200799.3163061722 -2172710.5572133856 -535725.7414885493 1347995.3941770515
        -180963.1938655494 -180732.24034844153 1169228.475784362 -2736763.1202061395 -546313.6416776612 1137692.521847761
        180501.28687530878 180732.2403924165 2253621.9180069366 -2736763.1202061395 546313.6417322644 928566.8923719976
        313457.4907185244 104562.814759869 1815988.0116335307 -3283076.761911102 0.00002730162133270322 852397.4667394501
        -313919.39770876535 -104562.81471589423 1606862.3821577674 -2190449.4785011765 0.000027301583000367802 1213861.9474803084
        -230.95349512040272 0.00002198740837658364 1711425.1968956492 -2736763.1202061395 0.00002730162133270322 1033129.707109879
        -24710.869262243334 -525373.1422587625 1144107.222954646 -3227610.3460491057 -569686.2651294583 960664.9686535912
        621111.8341639589 724327.4329333892 2477697.4614673033 -3285400.5650821775 569686.2651840615 761710.6780229391
        -277689.9736109723 -380443.6653461868 1976804.2349536766 -2188125.6753301006 469798.40558954683 1105594.4455661667
        -319634.8052712253 181489.37475950923 1247091.8682069685 -2245915.8943631724 -469798.40553494333 1304548.736196819
        <InformationKey name="L2_NORM_RANGE" location="vtkDataArray" length="2">
          <Value index="0">
            470509.50423
          </Value>
          <Value index="1">
            8538797.1856
          </Value>
        </InformationKey>
      </DataArray>
    </FieldData>
    <Piece NumberOfPoints="12" NumberOfCells="4">
      <PointData>
        <DataArray type="Float64" Name="MaterialForces" NumberOfComponents="3" format="ascii" RangeMin="20.39115238076599" RangeMax="1421.1205372984346">
          -738.6482985679571 33.642674350402444 212.89992679679315 948.827961898673 -843.9802547525824 637.970539945512
          -375.4585703517261 -295.55324327275554 -37.39021208935817 269.3478357335546 -344.01086377403885 -123.56828114631702
          29.08027823139321 615.8652893943629 -29.547830657209285 -16.306029069798054 45.70166666673572 -25.14025243576411
          8.878970257792014 -27.628276734536453 18.839586800790073 11.756191519924414 17.164129102294538 8.266800207794482
          14.200736137910932 7.869644914332902 12.337215142784993 21.42779653148612 -20.867131740563313 13.773173538876724
          -203.892265242326 413.9392196464089 -534.6110749272195 30.785392921073456 397.85714619993945 -153.8295911766832
          <InformationKey name="L2_NORM_RANGE" location="vtkDataArray" length="2">
            <Value index="0">
              20.391152381
            </Value>
            <Value index="1">
              1421.1205373
            </Value>
          </InformationKey>
        </DataArray>
        <DataArray type="Float64" Name="NodalForces" NumberOfComponents="3" format="ascii" RangeMin="0.000003479823340159688" RangeMax="1377780.6868202635">
          0.000002026554284384474 0.000001926906406879425 0.000002071057679131627 0.00001729872019495815 0.00000575982267037034 -0.00001479679485782981
          -535388.5512601518 640645.899253583 -642826.3169574903 -492777.31950632785 -411670.54232338513 -484811.0084410063
          0.000003942754119634628 0.0000030941155273467302 -0.00000833394005894661 -56467.16394606452 28920.949698068467 -63444.23115313251
          102199.32982058973 -145836.38729849155 -250143.3613705591 70179.33146747015 -112059.91931127555 63444.231133136134
          -6.014809037042779e-7 -0.00001107146398858229 -0.0000018688138608042219 0.0000017374163404054745 -0.000004615686353838634 8.170954701967479e-7
          -0.000001966244367774202 -0.0000062639380402863075 1377780.6868202635 912254.3734020463 -0.000007329114229739109 -0.000009100540857735447
          <InformationKey name="L2_NORM_RANGE" location="vtkDataArray" length="2">
            <Value index="0">
              3.4798233402e-06
            </Value>
            <Value index="1">
              1377780.6868
            </Value>
          </InformationKey>
        </DataArray>
        <DataArray type="Float64" Name="displacement" NumberOfComponents="3" format="ascii" RangeMin="0" RangeMax="0.0011215479269039708">
          0.00022709814750200729 -0.00024000103417815615 0.00009715528898309355 0.00014148069695769165 0.0002073279834831954 0.000245141298073928
          0 0 0 0 0 0
          -0.00014288323621392421 0.00009504035846459836 -0.00005529782377425846 0 0 0
          0 0 0 0 0 0
          0.000007144299566449148 0.00018441519917857058 -0.000058319676703268245 0.000024640982389055613 0.00016191745214477247 0.000031081278051363797
          -0.000006505312133117815 0.000507767105331416 0.001 0.001 0.00003461159341169068 0.00006923762141679808
          <InformationKey name="L2_NORM_RANGE" location="vtkDataArray" length="2">
            <Value index="0">
              0
            </Value>
            <Value index="1">
              0.0011215479269
            </Value>
          </InformationKey>
        </DataArray>
        <DataArray type="Float64" Name="epsilon" NumberOfComponents="6" format="ascii" RangeMin="0.00008759084241445606" RangeMax="0.0007722628588385536">
          -0.00009061090730942278 -0.00003823941885097306 0.0003077587889033791 -0.000014256964406538053 -0.00013197961446269324 0.00013184026611067498
          -0.00009716810912450619 -0.00013306989517512623 0.00037904387733159753 -0.00004461097101238547 0.000008151906752493955 0.0000646583289909531
          0.000007490185146775349 -0.0000977083528239139 0.00008420883238959156 -0.00023922740117089984 -0.00014810740888689846 0.00011082093802994815
          0.000004993456764516897 0.00003661899782739964 0.0002537722691318118 -0.0001692230145893608 0.00012784742805447042 0.00006392813456754068
          -0.000007069121770030203 -0.00011228762501755901 0.00021475435146376092 0.000021823512752955147 -0.0000684662544617472 -0.00002346705271148924
          1.232099598565942e-20 6.400039150753846e-21 -0.00005529782376983568 3.239627867098502e-20 0.00004752017922916905 -0.00007144161810481396
          -1.658156852677988e-20 -1.389725807243301e-20 0.0000310812780471697 -4.0704337302192134e-21 0.00008095872606773403 0.000012320491196303923
          -6.368868727414288e-20 1.6879278259493783e-20 -0.00005831967670187115 1.9591052836042036e-20 0.00009220759958390971 0.000003572149785046671
          0.00015002753577972148 0.00002249774703235132 -0.000058319676701871244 0.00003593907894348347 0.00004750712220938933 0.000002061223319028928
          -0.00011683971456975644 0.000022497747032351317 0.00003108127804716962 -0.000031453607081471795 0.00003625824869321365 -0.00009470951881463434
          -0.00008561745054490586 -0.00011228762501755891 0.0007548587019309536 0.00008148254224506035 -4.69795353021473e-15 -1.474683275830651e-15
          -0.000042808725272452936 -0.0000427798560828145 0.00017114829352639325 -0.00034209539002576743 3.4126689925062147e-15 0.00012914121338873495
          <InformationKey name="L2_NORM_RANGE" location="vtkDataArray" length="2">
            <Value index="0">
              8.7590842414e-05
            </Value>
            <Value index="1">
              0.00077226285884
            </Value>
          </InformationKey>
        </DataArray>
        <DataArray type="Float64" Name="sigma" NumberOfComponents="6" format="ascii" RangeMin="774089.8512685937" RangeMax="8538797.185591005">
          -9253.40750344928 409718.5001641487 3177704.162198966 -114055.71525230452 -1055836.915701546 1054722.1288854002
          -182121.3808681892 -469335.6692731496 3627574.5107806404 -356887.7680990838 65215.25401995171 517266.63192762475
          35884.140024014894 -805704.1637414991 649633.3179665447 -1913819.2093671982 -1184859.2710951876 886567.504239585
          1221486.5490110482 1474490.8775141102 3211717.0479494072 -1353784.1167148864 1022779.4244357633 511425.07654032554
          325037.4445444453 -516710.5814357849 2099625.2304147743 174588.1020236412 -547730.0356939775 -187736.42169191397
          -221191.2950793426 -221191.2950793426 -663573.8852380281 2.6913189516689924e-10 380161.4338333524 -571532.9448385118
          124325.11218867853 124325.11218867853 372975.3365660362 -7.87405778649579e-11 647669.8085418722 98563.92957043136
          -233278.7068074854 -233278.70680748465 -699836.120422454 1.6821436095730074e-10 737660.7966712784 28577.198280373344
          1657042.7106785781 636804.4006996169 -9734.989174163711 287512.6315478677 380056.9776751147 16489.786552231428
          -1187760.4745189936 -73060.78170213148 -4392.533583584991 -251628.85665177435 290065.98954570916 -757676.1505170749
          1542874.9011147083 1329513.5053334837 8266684.120921585 651860.3379604827 -0.000037583628241717826 -0.000011797466206645208
          -230.9534951201932 0.000021987472768826794 1711425.19689565 -2736763.1202061395 0.000027301319936955802 1033129.707109879
          <InformationKey name="L2_NORM_RANGE" location="vtkDataArray" length="2">
            <Value index="0">
              774089.85127
            </Value>
            <Value index="1">
              8538797.1856
            </Value>
          </InformationKey>
        </DataArray>
      </PointData>
      <CellData>
        <DataArray type="Int32" Name="MaterialIDs" format="ascii" RangeMin="0" RangeMax="0">
          0 1 2 3
        </DataArray>
        <DataArray type="Float64" Name="principal_stress_values" NumberOfComponents="3" format="ascii" RangeMin="746876.7140374054" RangeMax="8563642.874201544">
          775662.0908265365 2096726.3156216582 8266684.120921587 -262334.9319597766 100289.96169613367 692060.0646099729
          -1075604.6498280608 -86761.01528461989 1096639.998041036 -2856215.4427092886 1430811.907839182 3136597.778292622
          <InformationKey name="L2_NORM_RANGE" location="vtkDataArray" length="2">
            <Value index="0">
              746876.71404
            </Value>
            <Value index="1">
              8563642.8742
            </Value>
          </InformationKey>
        </DataArray>
        <DataArray type="Float64" Name="principal_stress_vector_1" NumberOfComponents="3" format="ascii" RangeMin="0.9999999999999997" RangeMax="1.0000000000000002">
          0.647492390324748 -0.7620719155509827 -2.8037106137490915e-12 -0.4297054322310498 -0.877744907501946 0.21193659161533712
          -0.6301546572787139 0.6684204365791113 0.39511925778597107 -0.7126034939864809 -0.6828010704303602 0.16117989507818362
          <InformationKey name="L2_NORM_RANGE" location="vtkDataArray" length="2">
            <Value index="0">
              1
            </Value>
            <Value index="1">
              1
            </Value>
          </InformationKey>
        </DataArray>
        <DataArray type="Float64" Name="principal_stress_vector_2" NumberOfComponents="3" format="ascii" RangeMin="0.9999999999999999" RangeMax="1">
          0.7620719155509829 0.647492390324748 5.4012737217467364e-12 -0.7618311090091638 0.22641524312902633 -0.6069180332010998
          -0.7058910795720672 -0.705136332765303 0.06708603427600657 -0.2343176518525481 0.4481874273783576 0.862683758958216
          <InformationKey name="L2_NORM_RANGE" location="vtkDataArray" length="2">
            <Value index="0">
              1
            </Value>
            <Value index="1">
              1
            </Value>
          </InformationKey>
        </DataArray>
        <DataArray type="Float64" Name="principal_stress_vector_3" NumberOfComponents="3" format="ascii" RangeMin="1" RangeMax="1.0000000000000002">
          2.3007777244714563e-12 5.633912750962435e-12 -1 0.4847335379948388 -0.4222558644154319 -0.7659852362218104
          -0.3234546207592776 0.23663658250086808 -0.9161769676933502 -0.6612801965797617 0.5769841662984557 -0.4793722702162781
          <InformationKey name="L2_NORM_RANGE" location="vtkDataArray" length="2">
            <Value index="0">
              1
            </Value>
            <Value index="1">
              1
            </Value>
          </InformationKey>
        </DataArray>
      </CellData>
      <Points>
        <DataArray type="Float64" Name="Points" NumberOfComponents="3" format="ascii" RangeMin="0" RangeMax="2.449489742783178">
          0 0 1 1 0 1
          0 0 0 1 0 0
          1 1 1 1 1 0
          2 0 0 2 1 0
          2 1 1 2 0 1
          1 0 2 0.5 -1 0.5
          <InformationKey name="L2_NORM_RANGE" location="vtkDataArray" length="2">
            <Value index="0">
              0
            </Value>
            <Value index="1">
              2.4494897428
            </Value>
          </InformationKey>
        </DataArray>
      </Points>
      <Cells>
        <DataArray type="Int64" Name="connectivity" format="ascii" RangeMin="0" RangeMax="11">
          0 1 4 10 3 5
          4 1 6 7 8 9
          0 1 4 2 3 5
          2 3 1 0 11
        </DataArray>
        <DataArray type="Int64" Name="offsets" format="ascii" RangeMin="4" RangeMax="23">
          4 12 18 23
        </DataArray>
        <DataArray type="UInt8" Name="types" format="ascii" RangeMin="10" RangeMax="14">
          10 12 13 14
        </DataArray>
      </Cells>
    </Piece>
  </UnstructuredGrid>
</VTKFile>
